\ This file has been generated by DOcplex
\ ENCODING=ISO-8859-1
\Problem name: ex4-FabricaAutomovel

Minimize
 obj: 3 qtd_carros_enviados_1_3 + 4 qtd_carros_enviados_1_4
      + 2 qtd_carros_enviados_2_3 + 5 qtd_carros_enviados_2_4
      + 7 qtd_carros_enviados_3_4 + 8 qtd_carros_enviados_3_5
      + 6 qtd_carros_enviados_3_6 + 4 qtd_carros_enviados_4_6
      + 9 qtd_carros_enviados_4_7 + 5 qtd_carros_enviados_5_6
      + 3 qtd_carros_enviados_6_7
Subject To
 rest_no1: qtd_carros_enviados_1_3 + qtd_carros_enviados_1_4 = 1000
 rest_no2: qtd_carros_enviados_2_3 + qtd_carros_enviados_2_4 = 1200
 rest_no3: qtd_carros_enviados_3_4 + qtd_carros_enviados_3_5
           + qtd_carros_enviados_3_6 - qtd_carros_enviados_1_3
           - qtd_carros_enviados_2_3 = 0
 rest_no4: qtd_carros_enviados_4_6 + qtd_carros_enviados_4_7
           - qtd_carros_enviados_1_4 - qtd_carros_enviados_2_4
           - qtd_carros_enviados_3_4 = 0
 rest_no5: qtd_carros_enviados_5_6 - qtd_carros_enviados_3_5 = -800
 rest_no6: qtd_carros_enviados_6_7 - qtd_carros_enviados_3_6
           - qtd_carros_enviados_4_6 - qtd_carros_enviados_5_6 = -900
 rest_no7: qtd_carros_enviados_4_7 + qtd_carros_enviados_6_7 = 500

Bounds

Generals
 qtd_carros_enviados_1_3 qtd_carros_enviados_1_4 qtd_carros_enviados_1_5
 qtd_carros_enviados_1_6 qtd_carros_enviados_1_7 qtd_carros_enviados_2_3
 qtd_carros_enviados_2_4 qtd_carros_enviados_2_5 qtd_carros_enviados_2_6
 qtd_carros_enviados_2_7 qtd_carros_enviados_3_3 qtd_carros_enviados_3_4
 qtd_carros_enviados_3_5 qtd_carros_enviados_3_6 qtd_carros_enviados_3_7
 qtd_carros_enviados_4_3 qtd_carros_enviados_4_4 qtd_carros_enviados_4_5
 qtd_carros_enviados_4_6 qtd_carros_enviados_4_7 qtd_carros_enviados_5_3
 qtd_carros_enviados_5_4 qtd_carros_enviados_5_5 qtd_carros_enviados_5_6
 qtd_carros_enviados_5_7 qtd_carros_enviados_6_3 qtd_carros_enviados_6_4
 qtd_carros_enviados_6_5 qtd_carros_enviados_6_6 qtd_carros_enviados_6_7
End
