\ This file has been generated by DOcplex
\ ENCODING=ISO-8859-1
\Problem name: Carregamento_Navio

Maximize
 obj: 10000000 x_Ouro_1mProa + 10000000 x_Ouro_2mCentro + 10000000 x_Ouro_3mPopa
      + 5000000 x_Pedras_Preciosas_1mProa + 5000000 x_Pedras_Preciosas_2mCentro
      + 5000000 x_Pedras_Preciosas_3mPopa
Subject To
 disponibilidade_carga_0: x_Ouro_1mProa + x_Ouro_2mCentro + x_Ouro_3mPopa <= 
                          5000
 disponibilidade_carga_1: x_Pedras_Preciosas_1mProa
                          + x_Pedras_Preciosas_2mCentro
                          + x_Pedras_Preciosas_3mPopa <= 2000
 limite_peso_porao_0: x_Ouro_1mProa + x_Pedras_Preciosas_1mProa <= 2000
 limite_peso_porao_1: x_Ouro_2mCentro + x_Pedras_Preciosas_2mCentro <= 3100
 limite_peso_porao_2: x_Ouro_3mPopa + x_Pedras_Preciosas_3mPopa <= 1500
 limite_volume_porao_0: 0.357142857143 x_Ouro_1mProa
                        + 0.555555555556 x_Pedras_Preciosas_1mProa <= 1100
 limite_volume_porao_1: 0.357142857143 x_Ouro_2mCentro
                        + 0.555555555556 x_Pedras_Preciosas_2mCentro <= 1400
 limite_volume_porao_2: 0.357142857143 x_Ouro_3mPopa
                        + 0.555555555556 x_Pedras_Preciosas_3mPopa <= 600
 _equilibrio_proa_centro: 3100 x_Ouro_1mProa + 3100 x_Pedras_Preciosas_1mProa
                          - 2000 x_Ouro_2mCentro
                          - 2000 x_Pedras_Preciosas_2mCentro = 0
 _equilibrio_centro_popa: 1500 x_Ouro_2mCentro
                          + 1500 x_Pedras_Preciosas_2mCentro
                          - 3100 x_Ouro_3mPopa - 3100 x_Pedras_Preciosas_3mPopa
                           = 0

Bounds
End
